% ------------------------------------------------------------------------------
% Copyright 2025 Ericsson
%
% Permission is hereby granted, free of charge, to any person obtaining a copy
% of this software and associated documentation files (the “Software”), to deal
% in the Software without restriction, including without limitation the rights
% to use, copy, modify, merge, publish, distribute, sublicense, and/or sell
% copies of the Software, and to permit persons to whom the Software is
% furnished to do so, subject to the following conditions:
%
% The above copyright notice and this permission notice shall be included in all
% copies or substantial portions of the Software.
%
% THE SOFTWARE IS PROVIDED “AS IS”, WITHOUT WARRANTY OF ANY KIND, EXPRESS OR
% IMPLIED, INCLUDING BUT NOT LIMITED TO THE WARRANTIES OF MERCHANTABILITY,
% FITNESS FOR A PARTICULAR PURPOSE AND NONINFRINGEMENT. IN NO EVENT SHALL THE
% AUTHORS OR COPYRIGHT HOLDERS BE LIABLE FOR ANY CLAIM, DAMAGES OR OTHER
% LIABILITY, WHETHER IN AN ACTION OF CONTRACT, TORT OR OTHERWISE, ARISING FROM,
% OUT OF OR IN CONNECTION WITH THE SOFTWARE OR THE USE OR OTHER DEALINGS IN THE
% SOFTWARE.
% ------------------------------------------------------------------------------
% Author: Danyal Mirza danyal.mirza@ericsson.com
nr_shelves = 50;
shelves = [30, 40, 20];

Product = P(1..10);

product_size =
[|       Length: Width: Height:
 | P(1):      9,     7,     20
 | P(2):      7,     8,      7
 | P(3):      8,    10,      4
 | P(4):     15,    10,      2
 | P(5):     20,    15,     15
 | P(6):     13,    30,     13
 | P(7):      9,    24,     10
 | P(8):     10,    35,      9
 | P(9):     10,    15,      2
 | P(10):    13,     5,      1
 |];

nr_products = [15, 9 ,9, 11, 13, 7, 10, 11, 10, 5];
